
Gurobi 7.0.2 (linux64) logging started Thu Jun  8 13:17:32 2017

Changed value of parameter logfile to result/NEIS-20170608T1255/scenario_base.log
   Prev: gurobi.log  Default: 
Optimize a model with 1059933 rows, 937229 columns and 3961670 nonzeros
Coefficient statistics:
  Matrix range     [8e-04, 1e+05]
  Objective range  [1e+00, 1e+00]
  Bounds range     [0e+00, 0e+00]
  RHS range        [4e-04, 1e+05]

Concurrent LP optimizer: primal simplex, dual simplex, and barrier
Showing barrier log only...

Presolve removed 580114 rows and 635954 columns
Presolve time: 2.91s
Presolved: 479819 rows, 301275 columns, 1383529 nonzeros

Ordering time: 0.42s

Barrier statistics:
 Dense cols : 22
 AA' NZ     : 1.918e+06
 Factor NZ  : 6.933e+06 (roughly 400 MBytes of memory)
 Factor Ops : 1.616e+08 (less than 1 second per iteration)
 Threads    : 22

                  Objective                Residual
Iter       Primal          Dual         Primal    Dual     Compl     Time
   0   3.74492652e+11 -2.71537421e+11  8.79e+02 6.66e+03  2.06e+07     5s
   1   2.95590887e+11 -9.41511296e+10  6.46e+02 1.38e+04  6.75e+06     5s
   2   2.88619777e+11 -6.54346397e+10  6.37e+02 6.79e+03  5.95e+06     6s
   3   1.92790909e+11 -9.02797818e+10  4.16e+02 2.06e+02  3.93e+06     6s
   4   5.46100253e+09 -7.67916870e+10  6.06e+00 6.00e+00  1.59e+05     7s
   5   8.00050895e+08 -7.18253799e+09  5.94e-01 5.02e-06  1.28e+04     7s
   6   2.90822072e+08 -2.51041589e+09  1.22e-01 4.53e-06  3.94e+03     8s
   7   1.19190440e+08 -5.48175270e+08  1.59e-02 1.73e-06  9.03e+02     8s
   8   9.32780409e+07 -3.41234719e+08  6.38e-03 8.33e-07  5.85e+02     9s
   9   4.95221752e+07 -7.04440604e+07  9.78e-04 1.24e-07  1.61e+02    10s
  10   3.27610114e+07 -1.84717819e+07  2.86e-04 4.14e-08  6.87e+01    10s
  11   2.38354372e+07  6.84021258e+05  1.32e-04 1.30e-08  3.10e+01    11s
  12   1.72366890e+07  1.83481021e+06  6.83e-05 9.81e-09  2.06e+01    11s
  13   1.43165277e+07  5.78837072e+06  4.04e-05 5.87e-09  1.14e+01    12s
  14   1.41240846e+07  7.23015458e+06  3.86e-05 3.97e-09  9.24e+00    12s
  15   1.27713411e+07  7.88338031e+06  2.64e-05 2.80e-09  6.55e+00    13s
  16   1.22711499e+07  8.44294079e+06  2.21e-05 1.93e-09  5.13e+00    13s
  17   1.11533994e+07  8.80052291e+06  1.21e-05 1.45e-09  3.15e+00    14s
  18   1.09471209e+07  8.94398100e+06  1.02e-05 1.19e-09  2.68e+00    15s
  19   1.08235107e+07  9.04382889e+06  8.98e-06 1.09e-09  2.39e+00    15s
  20   1.07773084e+07  9.12520870e+06  8.44e-06 1.09e-09  2.21e+00    16s
  21   1.07539930e+07  9.19619997e+06  8.20e-06 9.74e-10  2.09e+00    16s
  22   1.06741955e+07  9.31972068e+06  7.40e-06 8.31e-10  1.82e+00    17s
  23   1.06584033e+07  9.35259306e+06  7.20e-06 7.27e-10  1.75e+00    17s
  24   1.06032874e+07  9.45370195e+06  6.60e-06 6.12e-10  1.54e+00    18s
  25   1.04338666e+07  9.54096269e+06  4.64e-06 5.68e-10  1.20e+00    19s
  26   1.03601115e+07  9.62985939e+06  3.77e-06 4.27e-10  9.79e-01    19s
  27   1.02997818e+07  9.67313949e+06  3.04e-06 3.92e-10  8.40e-01    20s
  28   1.02772197e+07  9.69777582e+06  2.79e-06 3.36e-10  7.77e-01    20s
  29   1.02549504e+07  9.71640977e+06  2.54e-06 4.95e-10  7.22e-01    21s
  30   1.02329744e+07  9.75090967e+06  2.31e-06 3.20e-10  6.46e-01    21s
  31   1.02174709e+07  9.78319819e+06  2.12e-06 2.49e-10  5.82e-01    22s
  32   1.01647302e+07  9.82325613e+06  1.53e-06 3.78e-10  4.58e-01    22s
  33   1.01299216e+07  9.87720357e+06  1.14e-06 1.08e-10  3.39e-01    23s
  34   1.01248414e+07  9.90998479e+06  1.08e-06 8.88e-10  2.88e-01    23s
  35   1.01137529e+07  9.92162598e+06  9.62e-07 1.30e-09  2.58e-01    24s
  36   1.01031328e+07  9.93383737e+06  8.51e-07 4.66e-10  2.27e-01    24s
  37   1.00975464e+07  9.93690196e+06  7.93e-07 4.66e-10  2.15e-01    25s
  38   1.00908793e+07  9.94762101e+06  7.23e-07 3.64e-10  1.92e-01    25s
  39   1.00786275e+07  9.95640820e+06  5.95e-07 4.80e-10  1.64e-01    26s
  40   1.00751221e+07  9.95980749e+06  5.57e-07 2.91e-10  1.55e-01    26s
  41   1.00624152e+07  9.97520042e+06  4.26e-07 9.31e-10  1.17e-01    27s
  42   1.00576922e+07  9.98008152e+06  3.80e-07 1.19e-09  1.04e-01    28s
  43   1.00547686e+07  9.98238335e+06  3.51e-07 1.26e-09  9.70e-02    28s
  44   1.00537281e+07  9.98354669e+06  3.40e-07 1.23e-09  9.41e-02    28s
  45   1.00515904e+07  9.98520109e+06  3.17e-07 1.04e-09  8.90e-02    29s
  46   1.00510294e+07  9.98706936e+06  3.12e-07 7.79e-10  8.57e-02    29s
  47   1.00487282e+07  9.98857079e+06  2.89e-07 1.05e-09  8.06e-02    30s
  48   1.00450173e+07  9.99125221e+06  2.53e-07 8.37e-10  7.21e-02    30s
  49   1.00437486e+07  9.99212895e+06  2.41e-07 1.05e-09  6.92e-02    31s
  50   1.00416229e+07  9.99545085e+06  2.21e-07 6.55e-10  6.19e-02    32s
  51   1.00407747e+07  9.99675322e+06  2.12e-07 7.64e-10  5.90e-02    32s
  52   1.00396211e+07  9.99804870e+06  2.00e-07 9.09e-10  5.57e-02    33s
  53   1.00379374e+07  9.99981796e+06  1.84e-07 1.33e-09  5.11e-02    33s
  54   1.00357543e+07  1.00025077e+07  1.62e-07 1.56e-09  4.46e-02    34s
  55   1.00348599e+07  1.00037313e+07  1.53e-07 1.57e-09  4.17e-02    34s
  56   1.00324495e+07  1.00048409e+07  1.31e-07 1.97e-09  3.70e-02    34s
  57   1.00310632e+07  1.00084469e+07  1.18e-07 1.21e-09  3.03e-02    35s
  58   1.00297307e+07  1.00093728e+07  1.05e-07 8.08e-10  2.73e-02    36s
  59   1.00294399e+07  1.00099152e+07  1.02e-07 1.31e-09  2.62e-02    36s
  60   1.00290361e+07  1.00100429e+07  9.83e-08 1.38e-09  2.55e-02    37s
  61   1.00282656e+07  1.00103844e+07  9.09e-08 9.02e-10  2.40e-02    37s
  62   1.00274863e+07  1.00108230e+07  8.35e-08 8.51e-10  2.23e-02    38s
  63   1.00272746e+07  1.00112699e+07  8.15e-08 7.06e-10  2.15e-02    38s
  64   1.00271202e+07  1.00117019e+07  8.00e-08 1.06e-09  2.07e-02    39s
  65   1.00263817e+07  1.00121324e+07  7.28e-08 9.97e-10  1.91e-02    39s
  66   1.00259964e+07  1.00127284e+07  6.91e-08 1.02e-09  1.78e-02    40s
  67   1.00257543e+07  1.00129982e+07  6.67e-08 8.73e-10  1.71e-02    40s
  68   1.00255009e+07  1.00133565e+07  6.42e-08 6.69e-10  1.63e-02    41s
  69   1.00252817e+07  1.00135041e+07  6.21e-08 6.55e-10  1.58e-02    41s
  70   1.00250821e+07  1.00136538e+07  6.02e-08 9.97e-10  1.53e-02    42s
  71   1.00249252e+07  1.00138363e+07  5.87e-08 9.02e-10  1.49e-02    42s
  72   1.00245411e+07  1.00139463e+07  5.50e-08 6.55e-10  1.42e-02    43s
  73   1.00237395e+07  1.00143082e+07  4.78e-08 9.82e-10  1.26e-02    43s
  74   1.00232837e+07  1.00145170e+07  4.35e-08 9.75e-10  1.18e-02    44s
  75   1.00231335e+07  1.00148106e+07  4.21e-08 9.31e-10  1.12e-02    44s
  76   1.00230144e+07  1.00148640e+07  4.09e-08 5.89e-10  1.09e-02    45s
  77   1.00228989e+07  1.00149317e+07  3.98e-08 7.13e-10  1.07e-02    45s
  78   1.00226495e+07  1.00152415e+07  3.76e-08 3.78e-10  9.93e-03    46s
  79   1.00224759e+07  1.00153358e+07  3.59e-08 8.00e-11  9.57e-03    46s
  80   1.00222793e+07  1.00154104e+07  3.40e-08 2.04e-10  9.21e-03    47s
  81   1.00221510e+07  1.00158077e+07  3.28e-08 2.40e-10  8.50e-03    47s
  82   1.00217696e+07  1.00160065e+07  2.93e-08 2.91e-10  7.72e-03    48s
  83   1.00216537e+07  1.00161143e+07  2.81e-08 3.49e-10  7.43e-03    48s
  84   1.00215562e+07  1.00161540e+07  2.72e-08 8.63e-11  7.24e-03    49s
  85   1.00214629e+07  1.00162796e+07  2.63e-08 9.56e-11  6.95e-03    49s
  86   1.00213338e+07  1.00164296e+07  2.51e-08 9.72e-11  6.57e-03    50s
  87   1.00212367e+07  1.00165411e+07  2.40e-08 6.69e-10  6.29e-03    50s
  88   1.00210294e+07  1.00166620e+07  2.21e-08 1.00e-10  5.85e-03    51s
  89   1.00209449e+07  1.00167068e+07  2.13e-08 1.28e-09  5.68e-03    52s
  90   1.00207873e+07  1.00168750e+07  1.97e-08 3.49e-10  5.24e-03    52s
  91   1.00206435e+07  1.00169661e+07  1.84e-08 1.04e-10  4.93e-03    53s
  92   1.00204607e+07  1.00170304e+07  1.66e-08 2.91e-10  4.60e-03    53s
  93   1.00204082e+07  1.00171065e+07  1.61e-08 6.98e-10  4.43e-03    54s
  94   1.00203330e+07  1.00172116e+07  1.54e-08 4.58e-10  4.18e-03    55s
  95   1.00202411e+07  1.00172659e+07  1.45e-08 9.46e-10  3.99e-03    55s
  96   1.00202237e+07  1.00172979e+07  1.43e-08 1.09e-09  3.92e-03    56s
  97   1.00201386e+07  1.00173615e+07  1.35e-08 1.77e-09  3.72e-03    56s
  98   1.00200693e+07  1.00174350e+07  1.28e-08 2.31e-09  3.53e-03    57s
  99   1.00199848e+07  1.00175159e+07  1.20e-08 2.15e-09  3.31e-03    57s
 100   1.00199496e+07  1.00175306e+07  1.17e-08 1.85e-09  3.24e-03    58s
 101   1.00198864e+07  1.00175767e+07  1.10e-08 1.29e-09  3.10e-03    59s
 102   1.00198213e+07  1.00176790e+07  1.04e-08 6.98e-10  2.87e-03    59s
 103   1.00197874e+07  1.00178164e+07  1.01e-08 2.11e-10  2.64e-03    59s
 104   1.00197385e+07  1.00178310e+07  9.61e-09 2.11e-10  2.56e-03    60s
 105   1.00196860e+07  1.00178647e+07  9.11e-09 4.95e-10  2.44e-03    60s
 106   1.00196525e+07  1.00179189e+07  8.79e-09 1.75e-10  2.32e-03    61s
 107   1.00195614e+07  1.00179993e+07  8.00e-09 9.02e-10  2.09e-03    62s
 108   1.00195345e+07  1.00180118e+07  7.75e-09 1.09e-10  2.04e-03    63s
 109   1.00194969e+07  1.00180478e+07  7.41e-09 5.82e-10  1.94e-03    63s
 110   1.00194191e+07  1.00180926e+07  6.67e-09 9.75e-10  1.78e-03    64s
 111   1.00193901e+07  1.00181292e+07  6.40e-09 1.73e-09  1.69e-03    64s
 112   1.00192768e+07  1.00181430e+07  5.33e-09 9.75e-10  1.52e-03    65s
 113   1.00191633e+07  1.00181859e+07  4.28e-09 1.16e-09  1.31e-03    66s
 114   1.00191370e+07  1.00182463e+07  4.03e-09 5.82e-10  1.19e-03    66s
 115   1.00191066e+07  1.00182633e+07  3.72e-09 6.62e-10  1.13e-03    67s
 116   1.00190349e+07  1.00183466e+07  3.12e-09 8.48e-09  9.23e-04    67s
 117   1.00189794e+07  1.00185037e+07  2.54e-09 9.31e-10  6.38e-04    68s
 118   1.00189654e+07  1.00185123e+07  2.39e-09 9.17e-10  6.07e-04    69s
 119   1.00189386e+07  1.00185598e+07  2.14e-09 7.35e-10  5.08e-04    70s
 120   1.00189008e+07  1.00185921e+07  1.79e-09 4.73e-10  4.14e-04    71s
 121   1.00188955e+07  1.00185969e+07  1.74e-09 3.71e-10  4.00e-04    72s
 122   1.00188871e+07  1.00186010e+07  1.66e-09 4.95e-10  3.84e-04    73s
 123   1.00188815e+07  1.00186034e+07  1.60e-09 6.18e-10  3.73e-04    73s
 124   1.00188717e+07  1.00186104e+07  1.51e-09 2.91e-10  3.50e-04    74s
 125   1.00188576e+07  1.00186191e+07  1.38e-09 6.40e-10  3.20e-04    75s
 126   1.00188545e+07  1.00186239e+07  1.35e-09 4.44e-10  3.09e-04    76s
 127   1.00188460e+07  1.00186263e+07  1.27e-09 3.64e-10  2.95e-04    77s
 128   1.00188339e+07  1.00186486e+07  1.16e-09 4.66e-10  2.48e-04    78s
 129   1.00188323e+07  1.00186492e+07  1.16e-09 2.91e-10  2.45e-04    79s
 130   1.00188314e+07  1.00186496e+07  1.17e-09 7.28e-10  2.44e-04    80s
 131   6.66378102e+11 -2.71537421e+11  2.34e+03 6.66e+03  5.40e+07    81s
 132   5.23331199e+11 -2.73807530e+11  1.89e+03 1.88e+04  2.49e+07    82s
 133   5.18121255e+11 -2.05530363e+11  1.89e+03 9.67e+03  1.44e+07    82s
 134   4.11296081e+11 -1.59937201e+11  1.45e+03 4.85e+02  1.29e+07    83s
 135   1.92837934e+10 -1.25286537e+11  1.80e+01 5.39e-04  3.40e+05    84s
 136   2.79143150e+09 -2.92554558e+10  2.12e+00 8.33e-06  5.31e+04    84s
 137   5.01386181e+08 -4.33009024e+09  2.47e-01 7.45e-06  6.97e+03    85s
 138   2.05927329e+08 -7.92136201e+08  5.61e-02 2.14e-06  1.37e+03    85s
 139   1.41557808e+08 -3.37399479e+08  3.01e-02 8.26e-07  6.51e+02    85s
 140   1.33154398e+08 -1.07418724e+08  2.38e-02 3.34e-07  3.26e+02    86s
 141   8.64540037e+07 -6.11954834e+07  1.43e-02 1.48e-07  1.99e+02    86s
 142   5.25166451e+07 -3.55932990e+07  6.21e-03 9.11e-08  1.19e+02    87s
 143   2.82070838e+07 -4.02224685e+06  1.69e-03 2.09e-08  4.33e+01    88s
 144   2.12653243e+07  8.37498306e+05  9.95e-04 1.69e-08  2.74e+01    88s
 145   1.72348571e+07  2.11102770e+06  6.42e-04 1.55e-08  2.03e+01    89s
 146   1.58617061e+07  6.30786344e+06  5.15e-04 9.79e-09  1.28e+01    89s
 147   1.51137100e+07  6.70638688e+06  4.47e-04 8.37e-09  1.13e+01    89s
 148   1.36185320e+07  7.93356994e+06  3.18e-04 4.58e-09  7.62e+00    90s
 149   1.33732461e+07  8.35468100e+06  2.96e-04 3.91e-09  6.73e+00    90s
 150   1.20950246e+07  8.86826147e+06  1.82e-04 2.48e-09  4.33e+00    91s
 151   1.19808339e+07  9.40522624e+06  1.71e-04 1.15e-09  3.45e+00    92s
 152   1.10576714e+07  9.48479068e+06  9.04e-05 1.03e-09  2.11e+00    92s
 153   1.08500408e+07  9.57554891e+06  7.25e-05 8.66e-10  1.71e+00    93s
 154   1.07022481e+07  9.67049561e+06  5.92e-05 7.27e-10  1.38e+00    93s
 155   1.05158436e+07  9.76925842e+06  4.25e-05 4.86e-10  1.00e+00    93s
 156   1.04248006e+07  9.84523791e+06  3.46e-05 3.58e-10  7.77e-01    94s
 157   1.03810364e+07  9.86861133e+06  3.07e-05 4.15e-10  6.87e-01    94s
 158   1.03100721e+07  9.89183003e+06  2.51e-05 2.01e-10  5.61e-01    95s
 159   1.02454193e+07  9.91947631e+06  1.97e-05 1.67e-10  4.37e-01    96s
 160   1.02239940e+07  9.94728920e+06  1.77e-05 7.57e-10  3.71e-01    96s
 161   1.02125356e+07  9.95092472e+06  1.67e-05 3.86e-10  3.51e-01    97s
 162   1.02045044e+07  9.95421126e+06  1.60e-05 9.02e-10  3.36e-01    97s
 163   1.01978224e+07  9.95561754e+06  1.54e-05 7.71e-10  3.25e-01    97s
 164   1.01583935e+07  9.96005650e+06  1.19e-05 1.48e-09  2.66e-01    98s
 165   1.01521868e+07  9.97056611e+06  1.14e-05 3.93e-09  2.44e-01    98s
 166   1.01161526e+07  9.98854938e+06  8.25e-06 1.09e-09  1.71e-01    99s
 167   1.00899622e+07  9.99529578e+06  6.05e-06 1.48e-09  1.27e-01   100s
 168   1.00739708e+07  1.00027499e+07  4.63e-06 1.41e-09  9.55e-02   100s
 169   1.00683384e+07  1.00042068e+07  4.15e-06 9.75e-10  8.60e-02   101s
 170   1.00614118e+07  1.00057780e+07  3.55e-06 6.40e-10  7.46e-02   101s
 171   1.00543040e+07  1.00070858e+07  2.94e-06 5.60e-10  6.33e-02   101s
 172   1.00460637e+07  1.00109292e+07  2.25e-06 3.20e-10  4.71e-02   102s
 173   1.00409783e+07  1.00115624e+07  1.81e-06 3.78e-10  3.94e-02   102s
 174   1.00365815e+07  1.00138820e+07  1.46e-06 7.86e-10  3.04e-02   103s
 175   1.00327453e+07  1.00154312e+07  1.14e-06 1.67e-10  2.32e-02   104s
 176   1.00302684e+07  1.00158686e+07  9.44e-07 2.62e-10  1.93e-02   104s
 177   1.00291165e+07  1.00161680e+07  8.49e-07 7.57e-10  1.74e-02   105s
 178   1.00282633e+07  1.00164399e+07  7.79e-07 7.28e-10  1.59e-02   105s
 179   1.00273556e+07  1.00165145e+07  7.05e-07 9.02e-10  1.45e-02   106s
 180   1.00253756e+07  1.00170405e+07  5.41e-07 1.06e-09  1.12e-02   106s
 181   1.00242943e+07  1.00172167e+07  4.50e-07 9.09e-10  9.49e-03   107s
 182   1.00235112e+07  1.00175529e+07  3.89e-07 9.82e-10  7.99e-03   107s
 183   1.00227732e+07  1.00176645e+07  3.28e-07 1.75e-10  6.85e-03   108s
 184   1.00217531e+07  1.00177987e+07  2.45e-07 1.31e-10  5.30e-03   108s
 185   1.00213006e+07  1.00179023e+07  2.07e-07 8.15e-10  4.56e-03   109s
 186   1.00210899e+07  1.00180133e+07  1.91e-07 1.96e-10  4.13e-03   109s
 187   1.00209016e+07  1.00180865e+07  1.76e-07 1.60e-10  3.77e-03   110s
 188   1.00204525e+07  1.00181377e+07  1.40e-07 1.75e-10  3.10e-03   110s
 189   1.00202208e+07  1.00182314e+07  1.23e-07 6.69e-10  2.67e-03   111s
 190   1.00200313e+07  1.00182907e+07  1.07e-07 2.26e-10  2.33e-03   111s
 191   1.00199525e+07  1.00183651e+07  1.01e-07 3.90e-11  2.13e-03   112s
 192   1.00197527e+07  1.00184075e+07  8.41e-08 3.27e-10  1.80e-03   112s
 193   1.00196078e+07  1.00184688e+07  7.18e-08 3.20e-10  1.53e-03   113s
 194   1.00194655e+07  1.00185289e+07  6.08e-08 1.21e-09  1.26e-03   113s
 195   1.00192084e+07  1.00185742e+07  3.96e-08 3.42e-10  8.50e-04   114s
 196   1.00191069e+07  1.00185929e+07  3.10e-08 3.73e-09  6.89e-04   114s
 197   1.00189420e+07  1.00186757e+07  1.82e-08 3.57e-09  3.57e-04   115s
 198   1.00189065e+07  1.00186787e+07  1.53e-08 3.29e-09  3.06e-04   116s
 199   1.00188497e+07  1.00186899e+07  1.06e-08 2.20e-09  2.14e-04   117s
 200   1.00187844e+07  1.00186972e+07  1.08e-08 1.34e-09  1.17e-04   117s
 201   1.00187552e+07  1.00187051e+07  7.58e-08 2.16e-08  6.72e-05   118s
 202   1.00187312e+07  1.00187077e+07  1.43e-06 7.47e-09  3.15e-05   119s
 203   1.00187310e+07  1.00187078e+07  1.49e-06 5.97e-10  3.11e-05   120s
 204   1.00187310e+07  1.00187078e+07  1.49e-06 2.62e-10  3.11e-05   121s
 205   1.00187310e+07  1.00187078e+07  3.21e-06 2.40e-10  3.11e-05   121s
 206   1.00187310e+07  1.00187078e+07  3.00e-06 1.46e-10  3.10e-05   122s
 207   1.00187309e+07  1.00187078e+07  2.88e-06 7.42e-10  3.10e-05   123s
 208   1.00187306e+07  1.00187079e+07  2.60e-06 6.26e-10  3.04e-05   124s
 209   1.00187306e+07  1.00187079e+07  4.53e-06 5.68e-10  3.04e-05   125s
 210   1.00187305e+07  1.00187079e+07  4.50e-06 2.33e-10  3.02e-05   126s
 211   1.00187305e+07  1.00187079e+07  4.50e-06 8.59e-10  3.02e-05   127s
 212   1.00187304e+07  1.00187080e+07  4.50e-06 4.51e-10  3.01e-05   128s

Barrier performed 212 iterations in 128.02 seconds
Sub-optimal termination - objective 1.00187552e+07

Crossover log...

  210515 DPushes remaining with DInf 0.0000000e+00               128s
   78728 DPushes remaining with DInf 0.0000000e+00               130s
   76562 DPushes remaining with DInf 0.0000000e+00               136s
   74757 DPushes remaining with DInf 0.0000000e+00               141s
   72952 DPushes remaining with DInf 0.0000000e+00               146s
   71147 DPushes remaining with DInf 0.0000000e+00               151s
   69342 DPushes remaining with DInf 0.0000000e+00               156s
   67898 DPushes remaining with DInf 0.0000000e+00               160s
   66093 DPushes remaining with DInf 0.0000000e+00               166s
   64649 DPushes remaining with DInf 0.0000000e+00               170s
   62844 DPushes remaining with DInf 0.0000000e+00               175s
   54111 DPushes remaining with DInf 0.0000000e+00               180s
   50750 DPushes remaining with DInf 0.0000000e+00               186s
   48884 DPushes remaining with DInf 0.0000000e+00               191s
   46987 DPushes remaining with DInf 0.0000000e+00               195s
   43601 DPushes remaining with DInf 0.0000000e+00               200s
   40327 DPushes remaining with DInf 0.0000000e+00               205s
   35469 DPushes remaining with DInf 0.0000000e+00               211s
   31854 DPushes remaining with DInf 0.0000000e+00               215s
   23912 DPushes remaining with DInf 0.0000000e+00               220s
   17775 DPushes remaining with DInf 0.0000000e+00               225s
   14877 DPushes remaining with DInf 0.0000000e+00               230s
   13377 DPushes remaining with DInf 0.0000000e+00               236s
   11016 DPushes remaining with DInf 0.0000000e+00               241s
    8033 DPushes remaining with DInf 0.0000000e+00               246s
       0 DPushes remaining with DInf 1.9937702e-09               248s

  199178 PPushes remaining with PInf 2.3133270e-01               248s
   31797 PPushes remaining with PInf 3.6516873e-01               250s
       0 PPushes remaining with PInf 1.7021612e-02               254s

  Push phase complete: Pinf 1.7021612e-02, Dinf 6.2781854e+05    254s

Iteration    Objective       Primal Inf.    Dual Inf.      Time
  405684    1.0018717e+07   0.000000e+00   6.278185e+05    254s
  406045    1.0018713e+07   0.000000e+00   1.556202e+04    256s
  407489    1.0018713e+07   0.000000e+00   1.700885e+03    261s
  408070    1.0018713e+07   0.000000e+00   0.000000e+00    266s

Solved with barrier
Solved in 408070 iterations and 265.86 seconds
Optimal objective  1.001871273e+07
